n_res = 4;
rc = [ 20, 20, 21, 25 ];
n_tasks = 30;
d = [ 6, 3, 5, 5, 3, 6, 10, 2, 10, 6, 9, 2, 5, 1, 9, 10, 10, 6, 10, 5, 3, 10, 3, 3, 4, 1, 5, 5, 10, 3 ];
rr = [| 20, 20, 20, 20, 20, 20, 20, 20, 20, 20, 20, 20, 20, 20, 20, 20, 20, 20, 20, 20, 20, 20, 20, 20, 20, 20, 20, 20, 20, 20
      | 20, 20, 20, 20, 20, 20, 20, 20, 20, 20, 20, 20, 20, 20, 20, 20, 20, 20, 20, 20, 20, 20, 20, 20, 20, 20, 20, 20, 20, 20
      | 21, 21, 21, 21, 21, 21, 21, 21, 21, 21, 21, 21, 21, 21, 21, 21, 21, 21, 21, 21, 21, 21, 21, 21, 21, 21, 21, 21, 21, 21
      | 25, 25, 25, 25, 25, 25, 25, 25, 25, 25, 25, 25, 25, 25, 25, 25, 25, 25, 25, 25, 25, 25, 25, 25, 25, 25, 25, 25, 25, 25|];
suc = [ { 4, 6, 12 },
       { 5, 7, 12 },
       { 5, 10, 20 },
       { 10, 13, 16 },
       { 8, 14 },
       { 8, 17, 18 },
       { 15, 16, 17 },
       { 9, 21 },
       { 11, 22, 23 },
       { 14, 17, 18 },
       { 13, 15 },
       { 14, 15, 16 },
       { 24, 29 },
       { 21, 24 },
       { 19, 27 },
       { 18, 23, 24 },
       { 19, 23, 29 },
       { 19, 21, 29 },
       { 25, 30 },
       { 26, 27 },
       { 22, 25, 30 },
       { 26 },
       { 25 },
       { 27 },
       { 26 },
       { 28 },
       { 28, 30 },
       {  },
       {  },
       {  } ];
